Minimize
  obj: x0 + x1 + x2 + x3 + x4

Subject To
  c0: x1 + x2 = 15
  c1: x0 + x3 = 8
  c2: x2 + x4 = 21
  c3: x1 + x2 + x3 + x4 = 30
  c4: x3 + x4 = 15

Bounds
  x0 >= 0
  x1 >= 0
  x2 >= 0
  x3 >= 0
  x4 >= 0

Generals
  x0 x1 x2 x3 x4

End
